NAME: instance_1268
TYPE: TSP
DIMENSION: 20
EDGE_WEIGHT_TYPE: EUC_2D
NODE_COORD_SECTION
0 22.47 26.31
1 95.77 52.12
2 58.44 4.07
3 50.50 30.54
4 87.53 2.04
5 75.82 8.11
6 9.98 15.45
7 11.69 23.06
8 73.73 18.80
9 51.13 39.01
10 30.21 46.28
11 59.52 6.75
12 17.17 5.00
13 94.92 11.58
14 21.63 82.11
15 87.59 78.48
16 89.74 14.73
17 3.83 30.31
18 75.11 97.71
19 48.10 46.16
EOF
